NAME: P-n20-k2
DIMENSION: 5
CAPACITY: 15
DEMAND_SECTION:
 0    0 
 1    9 
 2    3 
 3    6 
 4    8 

EDGE_WEIGHT_SECTION
   0   14   21   33   22   
  14    0   12   19   12   
  21   12    0   15   22   
  33   19   15    0   21   
  22   12   22   21    0   
 
